<instance format="XCSP3" type="COP">
  <variables>
    <array id="s" note="s[i] is the starting time of the ith task" size="[100]"> 0..1022 </array>
    <var id="z" note="the total end time (makespan)"> 0..1022 </var>
  </variables>
  <constraints>
    <group note="difference constraints">
      <intension> le(add(%0,%1),%2) </intension>
      <args> s[0] 7 s[69] </args>
      <args> s[1] 14 s[47] </args>
      <args> s[1] 14 s[72] </args>
      <args> s[2] 15 s[30] </args>
      <args> s[2] 15 s[38] </args>
      <args> s[2] 15 s[42] </args>
      <args> s[2] -82 s[88] </args>
      <args> s[2] 15 s[89] </args>
      <args> s[3] 6 s[22] </args>
      <args> s[3] 6 s[37] </args>
      <args> s[3] 6 s[50] </args>
      <args> s[4] 6 s[65] </args>
      <args> s[5] 5 s[17] </args>
      <args> s[5] 5 s[36] </args>
      <args> s[5] 5 s[37] </args>
      <args> s[5] 5 s[41] </args>
      <args> s[5] 5 s[53] </args>
      <args> s[5] 5 s[64] </args>
      <args> s[5] 5 s[81] </args>
      <args> s[5] 5 s[94] </args>
      <args> s[6] 14 s[15] </args>
      <args> s[6] -69 s[26] </args>
      <args> s[7] 7 s[31] </args>
      <args> s[7] 7 s[40] </args>
      <args> s[7] 7 s[42] </args>
      <args> s[7] 7 s[43] </args>
      <args> s[7] 7 s[45] </args>
      <args> s[7] 7 s[65] </args>
      <args> s[7] 7 s[66] </args>
      <args> s[8] 10 s[15] </args>
      <args> s[8] 10 s[25] </args>
      <args> s[8] 10 s[43] </args>
      <args> s[8] 10 s[75] </args>
      <args> s[8] 10 s[76] </args>
      <args> s[9] 8 s[36] </args>
      <args> s[10] 11 s[9] </args>
      <args> s[10] 11 s[13] </args>
      <args> s[10] -59 s[22] </args>
      <args> s[10] 11 s[64] </args>
      <args> s[10] 11 s[67] </args>
      <args> s[10] 11 s[75] </args>
      <args> s[10] 11 s[90] </args>
      <args> s[10] 11 s[96] </args>
      <args> s[10] 11 s[99] </args>
      <args> s[11] 7 s[26] </args>
      <args> s[11] 7 s[33] </args>
      <args> s[11] 7 s[38] </args>
      <args> s[11] 7 s[95] </args>
      <args> s[12] 12 s[38] </args>
      <args> s[13] -49 s[53] </args>
      <args> s[13] 12 s[64] </args>
      <args> s[14] 15 s[87] </args>
      <args> s[15] -42 s[6] </args>
      <args> s[15] -103 s[35] </args>
      <args> s[16] 15 s[4] </args>
      <args> s[17] 9 s[58] </args>
      <args> s[18] 12 s[25] </args>
      <args> s[18] 12 s[29] </args>
      <args> s[18] 12 s[37] </args>
      <args> s[18] 12 s[54] </args>
      <args> s[19] 14 s[4] </args>
      <args> s[19] 14 s[27] </args>
      <args> s[19] 14 s[40] </args>
      <args> s[19] 14 s[44] </args>
      <args> s[19] 14 s[66] </args>
      <args> s[19] 14 s[72] </args>
      <args> s[20] 9 s[37] </args>
      <args> s[21] 9 s[17] </args>
      <args> s[22] 13 s[10] </args>
      <args> s[22] 13 s[37] </args>
      <args> s[22] 13 s[53] </args>
      <args> s[22] 13 s[59] </args>
      <args> s[22] 13 s[64] </args>
      <args> s[22] 13 s[99] </args>
      <args> s[23] 12 s[6] </args>
      <args> s[23] 12 s[12] </args>
      <args> s[23] 12 s[21] </args>
      <args> s[23] 12 s[29] </args>
      <args> s[23] 12 s[38] </args>
      <args> s[23] 12 s[42] </args>
      <args> s[23] 12 s[58] </args>
      <args> s[23] 12 s[85] </args>
      <args> s[24] 10 s[0] </args>
      <args> s[24] 10 s[26] </args>
      <args> s[24] 10 s[51] </args>
      <args> s[24] 10 s[72] </args>
      <args> s[25] 7 s[75] </args>
      <args> s[26] 5 s[6] </args>
      <args> s[27] -47 s[7] </args>
      <args> s[27] 6 s[12] </args>
      <args> s[27] 6 s[26] </args>
      <args> s[27] -59 s[46] </args>
      <args> s[27] 6 s[55] </args>
      <args> s[27] 6 s[65] </args>
      <args> s[27] -66 s[81] </args>
      <args> s[27] 6 s[86] </args>
      <args> s[27] 6 s[89] </args>
      <args> s[27] 6 s[99] </args>
      <args> s[28] 11 s[6] </args>
      <args> s[28] 11 s[92] </args>
      <args> s[29] 8 s[20] </args>
      <args> s[30] -125 s[1] </args>
      <args> s[30] -101 s[33] </args>
      <args> s[30] 7 s[43] </args>
      <args> s[30] -88 s[88] </args>
      <args> s[31] 8 s[55] </args>
      <args> s[32] 7 s[21] </args>
      <args> s[32] 7 s[26] </args>
      <args> s[32] 7 s[36] </args>
      <args> s[32] 7 s[38] </args>
      <args> s[32] 7 s[50] </args>
      <args> s[32] 7 s[53] </args>
      <args> s[32] 7 s[60] </args>
      <args> s[33] 6 s[15] </args>
      <args> s[33] 6 s[28] </args>
      <args> s[33] 6 s[38] </args>
      <args> s[34] 15 s[9] </args>
      <args> s[34] 15 s[15] </args>
      <args> s[34] 15 s[25] </args>
      <args> s[34] 15 s[35] </args>
      <args> s[34] 15 s[53] </args>
      <args> s[34] 15 s[57] </args>
      <args> s[34] 15 s[72] </args>
      <args> s[34] 15 s[74] </args>
      <args> s[34] 15 s[75] </args>
      <args> s[35] 11 s[72] </args>
      <args> s[36] 12 s[25] </args>
      <args> s[37] 13 s[59] </args>
      <args> s[38] 5 s[43] </args>
      <args> s[39] 7 s[26] </args>
      <args> s[39] 7 s[28] </args>
      <args> s[39] 7 s[35] </args>
      <args> s[39] 7 s[43] </args>
      <args> s[40] 9 s[89] </args>
      <args> s[41] 11 s[21] </args>
      <args> s[41] 11 s[27] </args>
      <args> s[41] 11 s[29] </args>
      <args> s[41] 11 s[37] </args>
      <args> s[41] 11 s[53] </args>
      <args> s[41] 11 s[64] </args>
      <args> s[41] 11 s[67] </args>
      <args> s[41] 11 s[80] </args>
      <args> s[41] 11 s[82] </args>
      <args> s[41] 11 s[96] </args>
      <args> s[42] 14 s[40] </args>
      <args> s[43] 6 s[42] </args>
      <args> s[44] 14 s[83] </args>
      <args> s[45] 10 s[14] </args>
      <args> s[45] 10 s[42] </args>
      <args> s[45] 10 s[46] </args>
      <args> s[45] 10 s[66] </args>
      <args> s[45] 10 s[87] </args>
      <args> s[45] 10 s[89] </args>
      <args> s[46] 10 s[4] </args>
      <args> s[46] 10 s[83] </args>
      <args> s[46] 10 s[94] </args>
      <args> s[47] 12 s[15] </args>
      <args> s[47] 12 s[35] </args>
      <args> s[47] 12 s[40] </args>
      <args> s[47] 12 s[91] </args>
      <args> s[48] 9 s[6] </args>
      <args> s[48] 9 s[13] </args>
      <args> s[48] 9 s[21] </args>
      <args> s[48] -33 s[23] </args>
      <args> s[48] 9 s[25] </args>
      <args> s[48] 9 s[26] </args>
      <args> s[48] -53 s[32] </args>
      <args> s[48] 9 s[42] </args>
      <args> s[48] 9 s[93] </args>
      <args> s[48] 9 s[96] </args>
      <args> s[49] 15 s[9] </args>
      <args> s[49] 15 s[23] </args>
      <args> s[49] 15 s[42] </args>
      <args> s[49] 15 s[50] </args>
      <args> s[49] 15 s[59] </args>
      <args> s[49] 15 s[64] </args>
      <args> s[50] 13 s[21] </args>
      <args> s[51] 12 s[6] </args>
      <args> s[51] 12 s[8] </args>
      <args> s[51] 12 s[26] </args>
      <args> s[51] 12 s[35] </args>
      <args> s[51] 12 s[40] </args>
      <args> s[51] 12 s[42] </args>
      <args> s[51] 12 s[43] </args>
      <args> s[52] 14 s[0] </args>
      <args> s[52] 14 s[13] </args>
      <args> s[52] 14 s[53] </args>
      <args> s[52] 14 s[57] </args>
      <args> s[52] -73 s[63] </args>
      <args> s[52] 14 s[75] </args>
      <args> s[52] 14 s[97] </args>
      <args> s[53] 5 s[13] </args>
      <args> s[54] 9 s[5] </args>
      <args> s[54] 9 s[7] </args>
      <args> s[54] 9 s[58] </args>
      <args> s[54] 9 s[64] </args>
      <args> s[54] 9 s[67] </args>
      <args> s[54] 9 s[69] </args>
      <args> s[54] 9 s[75] </args>
      <args> s[54] 9 s[81] </args>
      <args> s[54] 9 s[94] </args>
      <args> s[55] 13 s[66] </args>
      <args> s[55] 13 s[83] </args>
      <args> s[56] 6 s[17] </args>
      <args> s[56] 6 s[21] </args>
      <args> s[56] 6 s[27] </args>
      <args> s[56] 6 s[37] </args>
      <args> s[56] 6 s[58] </args>
      <args> s[56] 6 s[67] </args>
      <args> s[56] 6 s[69] </args>
      <args> s[56] -80 s[90] </args>
      <args> s[56] 6 s[96] </args>
      <args> s[56] 6 s[98] </args>
      <args> s[56] 6 s[99] </args>
      <args> s[57] -78 s[9] </args>
      <args> s[57] 13 s[53] </args>
      <args> s[58] 5 s[93] </args>
      <args> s[59] -68 s[37] </args>
      <args> s[59] -78 s[58] </args>
      <args> s[59] -61 s[93] </args>
      <args> s[59] 14 s[96] </args>
      <args> s[60] 13 s[21] </args>
      <args> s[60] 13 s[23] </args>
      <args> s[60] 13 s[26] </args>
      <args> s[60] 13 s[29] </args>
      <args> s[60] 13 s[49] </args>
      <args> s[60] 13 s[53] </args>
      <args> s[60] 13 s[64] </args>
      <args> s[60] 13 s[75] </args>
      <args> s[60] 13 s[82] </args>
      <args> s[60] 13 s[89] </args>
      <args> s[61] 6 s[2] </args>
      <args> s[61] 6 s[35] </args>
      <args> s[61] 6 s[38] </args>
      <args> s[61] 6 s[89] </args>
      <args> s[62] 15 s[44] </args>
      <args> s[63] 11 s[6] </args>
      <args> s[63] 11 s[25] </args>
      <args> s[63] 11 s[34] </args>
      <args> s[63] 11 s[43] </args>
      <args> s[63] 11 s[89] </args>
      <args> s[64] -93 s[0] </args>
      <args> s[64] -44 s[13] </args>
      <args> s[65] 8 s[86] </args>
      <args> s[66] 7 s[16] </args>
      <args> s[67] 11 s[14] </args>
      <args> s[67] 11 s[42] </args>
      <args> s[67] 11 s[65] </args>
      <args> s[67] 11 s[81] </args>
      <args> s[67] 11 s[89] </args>
      <args> s[68] 12 s[6] </args>
      <args> s[68] -101 s[8] </args>
      <args> s[68] 12 s[9] </args>
      <args> s[68] 12 s[78] </args>
      <args> s[69] 15 s[9] </args>
      <args> s[70] 13 s[6] </args>
      <args> s[70] 13 s[35] </args>
      <args> s[70] 13 s[77] </args>
      <args> s[71] 13 s[0] </args>
      <args> s[71] 13 s[13] </args>
      <args> s[71] 13 s[15] </args>
      <args> s[71] -160 s[73] </args>
      <args> s[72] 13 s[12] </args>
      <args> s[73] 12 s[24] </args>
      <args> s[73] 12 s[38] </args>
      <args> s[73] 12 s[53] </args>
      <args> s[73] 12 s[64] </args>
      <args> s[74] 9 s[6] </args>
      <args> s[74] 9 s[12] </args>
      <args> s[74] 9 s[13] </args>
      <args> s[74] 9 s[42] </args>
      <args> s[74] 9 s[52] </args>
      <args> s[74] 9 s[57] </args>
      <args> s[74] -132 s[78] </args>
      <args> s[75] -32 s[25] </args>
      <args> s[75] 14 s[57] </args>
      <args> s[76] 11 s[35] </args>
      <args> s[76] 11 s[38] </args>
      <args> s[76] 11 s[64] </args>
      <args> s[76] 11 s[70] </args>
      <args> s[76] 11 s[72] </args>
      <args> s[77] 9 s[12] </args>
      <args> s[77] 9 s[13] </args>
      <args> s[77] -123 s[24] </args>
      <args> s[77] 9 s[35] </args>
      <args> s[77] 9 s[38] </args>
      <args> s[77] 9 s[43] </args>
      <args> s[77] 9 s[68] </args>
      <args> s[77] 9 s[69] </args>
      <args> s[77] 9 s[89] </args>
      <args> s[78] 8 s[0] </args>
      <args> s[78] 8 s[12] </args>
      <args> s[78] 8 s[15] </args>
      <args> s[78] 8 s[25] </args>
      <args> s[78] 8 s[63] </args>
      <args> s[78] 8 s[64] </args>
      <args> s[78] 8 s[69] </args>
      <args> s[79] 15 s[15] </args>
      <args> s[79] 15 s[39] </args>
      <args> s[80] 9 s[3] </args>
      <args> s[80] 9 s[9] </args>
      <args> s[80] 9 s[27] </args>
      <args> s[80] 9 s[29] </args>
      <args> s[80] -58 s[41] </args>
      <args> s[80] 9 s[53] </args>
      <args> s[80] 9 s[75] </args>
      <args> s[81] 7 s[4] </args>
      <args> s[81] 7 s[7] </args>
      <args> s[81] 7 s[16] </args>
      <args> s[81] 7 s[35] </args>
      <args> s[81] 7 s[38] </args>
      <args> s[81] 7 s[86] </args>
      <args> s[82] -102 s[50] </args>
      <args> s[83] -104 s[4] </args>
      <args> s[83] -129 s[31] </args>
      <args> s[84] 12 s[7] </args>
      <args> s[84] 12 s[13] </args>
      <args> s[84] 12 s[18] </args>
      <args> s[84] 12 s[19] </args>
      <args> s[84] 12 s[21] </args>
      <args> s[84] 12 s[36] </args>
      <args> s[84] 12 s[94] </args>
      <args> s[85] 6 s[36] </args>
      <args> s[85] 6 s[43] </args>
      <args> s[85] 6 s[48] </args>
      <args> s[85] 6 s[59] </args>
      <args> s[85] -50 s[60] </args>
      <args> s[85] 6 s[64] </args>
      <args> s[85] 6 s[69] </args>
      <args> s[85] 6 s[89] </args>
      <args> s[86] 14 s[14] </args>
      <args> s[87] 14 s[62] </args>
      <args> s[87] -97 s[65] </args>
      <args> s[87] -87 s[66] </args>
      <args> s[88] 12 s[6] </args>
      <args> s[88] 12 s[40] </args>
      <args> s[88] 12 s[42] </args>
      <args> s[88] 12 s[79] </args>
      <args> s[89] 14 s[26] </args>
      <args> s[90] 13 s[9] </args>
      <args> s[90] 13 s[46] </args>
      <args> s[90] 13 s[50] </args>
      <args> s[90] 13 s[56] </args>
      <args> s[90] 13 s[59] </args>
      <args> s[90] 13 s[67] </args>
      <args> s[90] 13 s[94] </args>
      <args> s[90] 13 s[96] </args>
      <args> s[91] 10 s[11] </args>
      <args> s[91] 10 s[15] </args>
      <args> s[91] 10 s[26] </args>
      <args> s[91] 10 s[38] </args>
      <args> s[91] 10 s[72] </args>
      <args> s[92] 5 s[12] </args>
      <args> s[92] 5 s[26] </args>
      <args> s[92] -52 s[28] </args>
      <args> s[92] 5 s[38] </args>
      <args> s[92] 5 s[61] </args>
      <args> s[92] 5 s[72] </args>
      <args> s[92] 5 s[89] </args>
      <args> s[93] 12 s[29] </args>
      <args> s[94] 6 s[6] </args>
      <args> s[94] 6 s[27] </args>
      <args> s[94] 6 s[35] </args>
      <args> s[94] 6 s[40] </args>
      <args> s[94] 6 s[43] </args>
      <args> s[94] -37 s[46] </args>
      <args> s[94] 6 s[55] </args>
      <args> s[94] 6 s[62] </args>
      <args> s[94] 6 s[66] </args>
      <args> s[95] 7 s[43] </args>
      <args> s[95] 7 s[88] </args>
      <args> s[96] 10 s[82] </args>
      <args> s[97] 14 s[9] </args>
      <args> s[97] 14 s[15] </args>
      <args> s[97] 14 s[53] </args>
      <args> s[97] 14 s[57] </args>
      <args> s[97] 14 s[64] </args>
      <args> s[97] 14 s[71] </args>
      <args> s[98] 6 s[13] </args>
      <args> s[98] 6 s[17] </args>
      <args> s[98] 6 s[37] </args>
      <args> s[98] 6 s[59] </args>
      <args> s[98] 6 s[69] </args>
      <args> s[98] 6 s[75] </args>
      <args> s[98] 6 s[81] </args>
      <args> s[98] -107 s[84] </args>
      <args> s[98] 6 s[99] </args>
      <args> s[99] -57 s[19] </args>
      <args> s[99] 10 s[35] </args>
      <args> s[99] 10 s[43] </args>
      <args> s[99] -65 s[67] </args>
      <args> s[99] -63 s[81] </args>
      <args> s[99] 10 s[83] </args>
      <args> s[99] 10 s[89] </args>
    </group>
    <group>
      <cumulative>
        <origins> s[] </origins>
        <lengths> 7 14 15 6 6 5 14 7 10 8 11 7 12 12 15 6 15 9 12 14 9 9 13 12 10 7 5 6 11 8 7 8 7 6 15 11 12 13 5 7 9 11 14 6 14 10 10 12 9 15 13 12 14 5 9 13 6 13 5 14 13 6 15 11 10 8 7 11 12 15 13 13 13 12 9 14 11 9 8 15 9 7 8 8 12 6 14 14 12 14 13 10 5 12 6 7 10 14 6 10 </lengths>
        <heights> %... </heights>
        <condition> (le,%0) </condition>
      </cumulative>
      <args> 9 2 0 3 0 0 0 2 2 2 0 1 2 2 1 2 1 1 2 0 1 3 3 0 2 1 3 2 0 0 0 0 2 3 3 0 0 2 3 1 2 3 0 0 3 2 0 0 2 2 1 0 2 3 0 2 3 1 0 2 1 0 0 0 0 2 0 3 0 0 2 2 0 0 3 2 2 0 0 3 0 0 3 3 2 0 1 0 2 2 1 0 3 0 0 3 2 2 0 2 3 </args>
      <args> 8 0 1 0 0 0 0 3 2 3 1 3 0 0 1 0 2 3 3 3 3 0 1 0 0 1 0 1 1 0 1 0 0 3 3 1 1 0 3 1 0 2 0 3 3 1 3 2 2 3 1 3 0 0 1 2 2 2 2 1 2 3 0 3 0 1 1 2 0 2 1 1 0 2 0 1 2 2 0 0 2 0 0 0 2 0 3 0 2 0 3 1 3 1 1 1 0 3 0 1 0 </args>
      <args> 7 2 0 3 2 2 0 3 3 0 2 3 3 1 0 2 1 0 3 0 1 0 1 1 3 1 3 1 0 0 1 2 1 0 1 3 2 3 2 1 3 0 3 3 1 1 1 2 1 0 2 1 1 0 3 1 3 1 0 3 0 0 1 1 2 1 0 0 0 0 0 0 1 1 0 2 2 1 2 1 1 1 2 2 0 0 2 3 3 3 1 1 0 1 3 0 1 1 3 0 1 </args>
      <args> 8 2 1 2 0 0 1 2 0 2 1 3 3 2 1 1 3 3 1 0 1 1 2 1 0 0 2 2 3 1 3 3 2 0 0 0 0 1 0 0 2 0 1 3 3 2 0 3 0 2 3 1 3 3 2 2 2 0 2 0 1 3 1 2 3 3 0 0 0 1 0 0 1 1 1 3 2 0 2 3 1 0 0 0 0 0 0 1 1 2 2 0 3 3 0 1 2 0 0 3 1 </args>
      <args> 7 2 2 3 0 3 2 1 2 3 0 0 3 3 3 2 0 3 0 0 1 1 0 2 1 1 2 0 1 1 1 3 1 2 0 1 0 2 2 1 0 0 1 3 0 0 3 0 3 0 0 0 2 2 1 2 0 2 0 0 3 0 0 2 2 0 1 2 1 1 0 1 1 2 0 0 1 2 2 1 0 3 3 0 0 3 2 1 0 3 2 1 0 2 1 1 3 1 0 0 2 </args>
    </group>
    <group>
      <intension> le(add(%0,%1),z) </intension>
      <args> s[0] 7 </args>
      <args> s[1] 14 </args>
      <args> s[2] 15 </args>
      <args> s[3] 6 </args>
      <args> s[4] 6 </args>
      <args> s[5] 5 </args>
      <args> s[6] 14 </args>
      <args> s[7] 7 </args>
      <args> s[8] 10 </args>
      <args> s[9] 8 </args>
      <args> s[10] 11 </args>
      <args> s[11] 7 </args>
      <args> s[12] 12 </args>
      <args> s[13] 12 </args>
      <args> s[14] 15 </args>
      <args> s[15] 6 </args>
      <args> s[16] 15 </args>
      <args> s[17] 9 </args>
      <args> s[18] 12 </args>
      <args> s[19] 14 </args>
      <args> s[20] 9 </args>
      <args> s[21] 9 </args>
      <args> s[22] 13 </args>
      <args> s[23] 12 </args>
      <args> s[24] 10 </args>
      <args> s[25] 7 </args>
      <args> s[26] 5 </args>
      <args> s[27] 6 </args>
      <args> s[28] 11 </args>
      <args> s[29] 8 </args>
      <args> s[30] 7 </args>
      <args> s[31] 8 </args>
      <args> s[32] 7 </args>
      <args> s[33] 6 </args>
      <args> s[34] 15 </args>
      <args> s[35] 11 </args>
      <args> s[36] 12 </args>
      <args> s[37] 13 </args>
      <args> s[38] 5 </args>
      <args> s[39] 7 </args>
      <args> s[40] 9 </args>
      <args> s[41] 11 </args>
      <args> s[42] 14 </args>
      <args> s[43] 6 </args>
      <args> s[44] 14 </args>
      <args> s[45] 10 </args>
      <args> s[46] 10 </args>
      <args> s[47] 12 </args>
      <args> s[48] 9 </args>
      <args> s[49] 15 </args>
      <args> s[50] 13 </args>
      <args> s[51] 12 </args>
      <args> s[52] 14 </args>
      <args> s[53] 5 </args>
      <args> s[54] 9 </args>
      <args> s[55] 13 </args>
      <args> s[56] 6 </args>
      <args> s[57] 13 </args>
      <args> s[58] 5 </args>
      <args> s[59] 14 </args>
      <args> s[60] 13 </args>
      <args> s[61] 6 </args>
      <args> s[62] 15 </args>
      <args> s[63] 11 </args>
      <args> s[64] 10 </args>
      <args> s[65] 8 </args>
      <args> s[66] 7 </args>
      <args> s[67] 11 </args>
      <args> s[68] 12 </args>
      <args> s[69] 15 </args>
      <args> s[70] 13 </args>
      <args> s[71] 13 </args>
      <args> s[72] 13 </args>
      <args> s[73] 12 </args>
      <args> s[74] 9 </args>
      <args> s[75] 14 </args>
      <args> s[76] 11 </args>
      <args> s[77] 9 </args>
      <args> s[78] 8 </args>
      <args> s[79] 15 </args>
      <args> s[80] 9 </args>
      <args> s[81] 7 </args>
      <args> s[82] 8 </args>
      <args> s[83] 8 </args>
      <args> s[84] 12 </args>
      <args> s[85] 6 </args>
      <args> s[86] 14 </args>
      <args> s[87] 14 </args>
      <args> s[88] 12 </args>
      <args> s[89] 14 </args>
      <args> s[90] 13 </args>
      <args> s[91] 10 </args>
      <args> s[92] 5 </args>
      <args> s[93] 12 </args>
      <args> s[94] 6 </args>
      <args> s[95] 7 </args>
      <args> s[96] 10 </args>
      <args> s[97] 14 </args>
      <args> s[98] 6 </args>
      <args> s[99] 10 </args>
    </group>
  </constraints>
  <objectives>
    <minimize> z </minimize>
  </objectives>
</instance>
